23359.24 0
31 56 75 81 73 10 86 15 68 41 59 48 42 98 67 78 95 61 89 2 50 34 64 28 69 13 4 91 24 71 57 66 74 39 83 7 47 37 77 88 87 20 5 92 54 35 44 43 40 25 19 70 38 22 52 8 90 26 29 79 17 51 84 72 99 21 32 11 3 55 96 80 16 14 62 76 53 9 18 63 85 6 23 49 82 94 30 46 45 36 1 60 33 97 93 12 0 65 58 27